(set-logic ALL)
(declare-fun var0 () String)
(assert (str.in_re var0 (re.++ (re.+ (re.* (str.to_re "0"))) (re.++ (re.+ (re.union (str.to_re "111") (str.to_re "2"))) (re.++ (re.* (re.* (str.to_re "3"))) (re.++ (re.* (re.union (str.to_re "4") (str.to_re "55"))) (re.++ (re.+ (re.* (str.to_re "666"))) (re.++ (re.* (re.union (str.to_re "777") (str.to_re "88"))) (re.++ (re.union (re.+ (str.to_re "99")) (re.+ (str.to_re "aa"))) (re.++ (re.* (re.union (str.to_re "bb") (str.to_re "ccc"))) (re.++ (re.union (re.+ (str.to_re "ddd")) (re.+ (str.to_re "eee"))) (re.* (re.* (str.to_re "f"))))))))))))))
(assert (<= 326 (str.len var0)))
(check-sat)